
100
24768

529 329
1284 984
1260 960
1119 919
990 790
1176 876
201 1
827 627
448 248
931 731
633 433
761 561
743 543
777 577
1128 828
1182 982
546 346
1007 807
1090 890
593 393
324 124
798 498
965 765
725 525
385 185
906 706
525 325
1087 887
369 169
894 594
586 386
1185 985
339 139
1081 881
618 418
672 372
409 209
695 495
1230 930
1200 1000
1140 940
912 612
437 237
708 508
850 650
496 296
1187 987
285 85
435 235
504 204
468 168
264 64
540 240
574 374
1140 940
745 545
825 625
549 349
371 171
864 564
929 729
286 86
850 650
510 210
990 690
556 356
348 148
341 141
993 793
741 541
286 86
1206 906
477 277
480 280
203 3
501 301
760 560
1098 898
499 299
798 498
280 80
887 687
501 301
576 376
471 271
1019 819
1181 981
438 138
652 452
307 107
951 751
1108 908
327 127
883 683
504 304
651 451
773 573
585 385
852 652
527 327
